400 50
142 16
172 177
150 29
13 133
62 30
136 110
38 77
30 30
10 45
32 33
228 177
62 8
16 30
45 36
30 133
150 12
23 21
62 8
3 133
98 74
44 20
41 24
21 8
63 15
17 57
62 7
59 110
77 13
25 21
21 16
8 21
142 23
44 32
10 59
7 21
62 4
11 133
150 16
33 20
62 9
70 77
44 42
55 65
62 13
16 30
17 76
4 133
10 29
41 33
55 45
